NAME          BLANK   
ROWS
 N  OBJROW
 L  R0000000
COLUMNS
    C0000000  OBJROW     -118.         R0000000  634.        
    C0000001  OBJROW     -52.          R0000000  904.        
    C0000002  OBJROW     -30.          R0000000  91.         
    C0000003  OBJROW     -773.         R0000000  160.        
    C0000004  OBJROW     -412.         R0000000  929.        
    C0000005  OBJROW     -302.         R0000000  9.          
    C0000006  OBJROW     -669.         R0000000  73.         
    C0000007  OBJROW     -260.         R0000000  481.        
    C0000008  OBJROW     -671.         R0000000  338.        
    C0000009  OBJROW     -236.         R0000000  881.        
    C0000010  OBJROW     -229.         R0000000  842.        
    C0000011  OBJROW     -950.         R0000000  591.        
    C0000012  OBJROW     -531.         R0000000  147.        
    C0000013  OBJROW     -735.         R0000000  120.        
    C0000014  OBJROW     -491.         R0000000  9.          
    C0000015  OBJROW     -455.         R0000000  273.        
    C0000016  OBJROW     -195.         R0000000  802.        
    C0000017  OBJROW     -375.         R0000000  505.        
    C0000018  OBJROW     -987.         R0000000  336.        
    C0000019  OBJROW     -687.         R0000000  962.        
RHS
    RHS       R0000000  4543.       
BOUNDS
 BV BOUND     C0000000  1.          
 BV BOUND     C0000001  1.          
 BV BOUND     C0000002  1.          
 BV BOUND     C0000003  1.          
 BV BOUND     C0000004  1.          
 BV BOUND     C0000005  1.          
 BV BOUND     C0000006  1.          
 BV BOUND     C0000007  1.          
 BV BOUND     C0000008  1.          
 BV BOUND     C0000009  1.          
 BV BOUND     C0000010  1.          
 BV BOUND     C0000011  1.          
 BV BOUND     C0000012  1.          
 BV BOUND     C0000013  1.          
 BV BOUND     C0000014  1.          
 BV BOUND     C0000015  1.          
 BV BOUND     C0000016  1.          
 BV BOUND     C0000017  1.          
 BV BOUND     C0000018  1.          
 BV BOUND     C0000019  1.          
ENDATA
